76312
6,7,8,9,10,13,14,16,19,20,21,23,24,25,26,27,29,30,33,34,35,36,39,41,42,44,45,46,47,48,49,51,52,53,55,61,62,63,64,67,71,73,74,75,76,79,80,82,84,85,88,89,91,95,97,99,103,104,105,106,108,109,110,112,114,116,117,120,121,125,127,128,129,134,136,137,138,141,142,145,147,150,154,156,159,161,162,164,165,166,168,169,172,173,175,176,177,178,181,182,185,186,187,191,423,432
